GLPSOL--GLPK LP/MIP Solver 5.0
Parameter(s) specified in the command line:
 --lp ../modeles/20_314.lp --log 20_314.log
Reading problem data from '../modeles/20_314.lp'...
6361 rows, 12600 columns, 44020 non-zeros
6280 integer variables, all of which are binary
18987 lines were read
GLPK Integer Optimizer 5.0
6361 rows, 12600 columns, 44020 non-zeros
6280 integer variables, all of which are binary
Preprocessing...
6200 constraint coefficient(s) were reduced
6361 rows, 12580 columns, 44000 non-zeros
6280 integer variables, all of which are binary
Scaling...
 A: min|aij| =  1.623e-04  max|aij| =  4.000e+00  ratio =  2.465e+04
GM: min|aij| =  7.981e-02  max|aij| =  1.253e+01  ratio =  1.570e+02
EQ: min|aij| =  6.369e-03  max|aij| =  1.000e+00  ratio =  1.570e+02
2N: min|aij| =  5.193e-03  max|aij| =  1.770e+00  ratio =  3.409e+02
Constructing initial basis...
Size of triangular part is 6361
Solving LP relaxation...
GLPK Simplex Optimizer 5.0
6361 rows, 12580 columns, 44000 non-zeros
      0: obj =   4.000000000e+01 inf =   9.950e+01 (41)
Perturbing LP to avoid stalling [199]...
    379: obj =   1.185665307e-01 inf =   0.000e+00 (0)
Removing LP perturbation [1234]...
*  1234: obj =  -4.470336670e+00 inf =   4.753e-16 (0) 1
OPTIMAL LP SOLUTION FOUND
Integer optimization begins...
Long-step dual simplex will be used
+  1234: mip =     not found yet >=              -inf        (1; 0)
+  1426: mip =     not found yet >=  -4.470336670e+00        (192; 0)
+  1680: mip =     not found yet >=  -4.470336670e+00        (442; 0)
+  1917: >>>>>  -4.470336670e+00 >=  -4.470336670e+00 < 0.1% (673; 0)
+  1917: mip =  -4.470336670e+00 >=     tree is empty   0.0% (0; 1345)
INTEGER OPTIMAL SOLUTION FOUND
Time used:   13.8 secs
Memory used: 18.2 Mb (19063180 bytes)
